letting n =  10
letting blocks =  [[1, 2], [1, 3], [1, 6], [1, 8], [1, 9], [1, 10], [2, 7], [2, 10], [3, 2], [3, 8], [4, 1], [4, 8], [4, 9], [4, 10], [5, 3], [5, 4], [5, 8], [5, 9], [6, 3], [6, 8], [7, 3], [7, 6], [7, 7], [7, 10], [8, 1], [8, 2], [8, 4], [9, 7], [9, 10], [10, 2], [10, 4], [10, 8]]
